75
1 0 10
2 0 2
2 1 4
3 0 9
3 1 3
3 2 2
4 0 8
4 1 10
4 2 8
4 3 9
5 0 7
5 1 2
5 2 10
5 3 4
5 4 7
6 0 3
6 1 1
6 2 2
6 3 1
6 4 10
6 5 9
7 0 6
7 1 4
7 2 4
7 3 8
7 4 10
7 5 9
7 6 8
8 0 7
8 1 4
8 2 3
8 3 9
8 4 1
8 5 2
8 6 9
8 7 9
9 0 4
9 1 4
9 2 1
9 3 9
9 4 2
9 5 5
9 6 6
9 7 3
9 8 10
10 0 3
10 1 8
10 2 3
10 3 4
10 4 1
10 5 9
10 6 10
10 7 6
10 8 6
10 9 9
11 0 10
11 1 8
11 2 10
11 3 8
11 4 1
11 5 6
11 6 6
11 7 4
11 8 10
11 9 2
11 10 8
12 0 7
12 1 7
12 2 5
12 3 6
12 4 6
12 5 2
12 6 3
12 7 4
12 8 6
12 9 4
12 10 8
12 11 1
13 0 6
13 1 7
13 2 9
13 3 7
13 4 4
13 5 10
13 6 1
13 7 3
13 8 4
13 9 1
13 10 4
13 11 1
13 12 6
14 0 10
14 1 10
14 2 7
14 3 1
14 4 9
14 5 3
14 6 1
14 7 7
14 8 3
14 9 9
14 10 6
14 11 7
14 12 9
14 13 2
15 0 5
15 1 10
15 2 9
15 3 4
15 4 10
15 5 9
15 6 6
15 7 10
15 8 3
15 9 2
15 10 4
15 11 4
15 12 6
15 13 10
15 14 3
16 0 1
16 1 3
16 2 8
16 3 8
16 4 6
16 5 9
16 6 6
16 7 5
16 8 2
16 9 8
16 10 6
16 11 6
16 12 5
16 13 10
16 14 6
16 15 2
17 0 4
17 1 4
17 2 5
17 3 3
17 4 7
17 5 8
17 6 3
17 7 2
17 8 2
17 9 7
17 10 8
17 11 4
17 12 10
17 13 7
17 14 6
17 15 8
17 16 5
18 0 3
18 1 2
18 2 4
18 3 7
18 4 4
18 5 10
18 6 5
18 7 9
18 8 6
18 9 10
18 10 5
18 11 8
18 12 1
18 13 7
18 14 1
18 15 8
18 16 8
18 17 5
19 0 6
19 1 9
19 2 6
19 3 4
19 4 10
19 5 7
19 6 10
19 7 6
19 8 2
19 9 6
19 10 2
19 11 1
19 12 5
19 13 6
19 14 1
19 15 10
19 16 2
19 17 7
19 18 1
20 0 5
20 1 5
20 2 6
20 3 2
20 4 8
20 5 9
20 6 1
20 7 1
20 8 9
20 9 8
20 10 2
20 11 4
20 12 9
20 13 10
20 14 9
20 15 9
20 16 6
20 17 8
20 18 8
20 19 2
21 0 7
21 1 4
21 2 8
21 3 9
21 4 6
21 5 4
21 6 8
21 7 9
21 8 2
21 9 1
21 10 9
21 11 3
21 12 6
21 13 10
21 14 9
21 15 7
21 16 1
21 17 2
21 18 7
21 19 5
21 20 3
22 0 6
22 1 9
22 2 2
22 3 10
22 4 3
22 5 7
22 6 9
22 7 4
22 8 1
22 9 10
22 10 8
22 11 5
22 12 6
22 13 8
22 14 9
22 15 3
22 16 3
22 17 3
22 18 1
22 19 2
22 20 7
22 21 8
23 0 1
23 1 5
23 2 7
23 3 9
23 4 5
23 5 2
23 6 10
23 7 2
23 8 9
23 9 8
23 10 7
23 11 4
23 12 8
23 13 8
23 14 1
23 15 2
23 16 7
23 17 9
23 18 1
23 19 3
23 20 7
23 21 5
23 22 5
24 0 10
24 1 6
24 2 3
24 3 10
24 4 9
24 5 6
24 6 8
24 7 1
24 8 4
24 9 6
24 10 8
24 11 5
24 12 4
24 13 4
24 14 3
24 15 5
24 16 1
24 17 6
24 18 3
24 19 3
24 20 1
24 21 10
24 22 8
24 23 7
25 0 4
25 1 3
25 2 4
25 3 9
25 4 10
25 5 3
25 6 8
25 7 7
25 8 6
25 9 10
25 10 8
25 11 5
25 12 4
25 13 2
25 14 6
25 15 10
25 16 2
25 17 8
25 18 9
25 19 1
25 20 3
25 21 2
25 22 3
25 23 9
25 24 7
26 0 2
26 1 3
26 2 10
26 3 10
26 4 8
26 5 6
26 6 6
26 7 10
26 8 8
26 9 8
26 10 7
26 11 4
26 12 1
26 13 10
26 14 4
26 15 3
26 16 5
26 17 3
26 18 3
26 19 9
26 20 2
26 21 4
26 22 4
26 23 3
26 24 10
26 25 4
27 0 5
27 1 1
27 2 3
27 3 9
27 4 9
27 5 8
27 6 2
27 7 6
27 8 8
27 9 2
27 10 7
27 11 9
27 12 5
27 13 8
27 14 7
27 15 9
27 16 8
27 17 3
27 18 1
27 19 3
27 20 1
27 21 2
27 22 7
27 23 8
27 24 10
27 25 4
27 26 1
28 0 6
28 1 2
28 2 8
28 3 9
28 4 7
28 5 6
28 6 8
28 7 2
28 8 9
28 9 7
28 10 10
28 11 1
28 12 1
28 13 10
28 14 6
28 15 5
28 16 6
28 17 3
28 18 7
28 19 9
28 20 6
28 21 10
28 22 9
28 23 8
28 24 10
28 25 10
28 26 1
28 27 10
29 0 6
29 1 3
29 2 7
29 3 5
29 4 10
29 5 3
29 6 6
29 7 6
29 8 7
29 9 2
29 10 5
29 11 7
29 12 3
29 13 3
29 14 6
29 15 3
29 16 4
29 17 2
29 18 6
29 19 1
29 20 7
29 21 5
29 22 9
29 23 10
29 24 3
29 25 5
29 26 1
29 27 7
29 28 2
30 0 1
30 1 1
30 2 8
30 3 3
30 4 4
30 5 9
30 6 2
30 7 1
30 8 6
30 9 10
30 10 10
30 11 4
30 12 4
30 13 2
30 14 7
30 15 5
30 16 4
30 17 2
30 18 5
30 19 5
30 20 3
30 21 9
30 22 10
30 23 3
30 24 3
30 25 2
30 26 1
30 27 4
30 28 2
30 29 5
31 0 9
31 1 6
31 2 2
31 3 8
31 4 1
31 5 9
31 6 7
31 7 9
31 8 4
31 9 4
31 10 3
31 11 3
31 12 9
31 13 7
31 14 2
31 15 10
31 16 7
31 17 4
31 18 10
31 19 5
31 20 7
31 21 2
31 22 5
31 23 9
31 24 7
31 25 6
31 26 6
31 27 9
31 28 5
31 29 1
31 30 10
32 0 10
32 1 8
32 2 8
32 3 4
32 4 4
32 5 3
32 6 7
32 7 4
32 8 5
32 9 2
32 10 3
32 11 9
32 12 5
32 13 9
32 14 1
32 15 4
32 16 2
32 17 9
32 18 6
32 19 8
32 20 6
32 21 6
32 22 10
32 23 4
32 24 4
32 25 10
32 26 10
32 27 3
32 28 2
32 29 5
32 30 5
32 31 6
33 0 1
33 1 7
33 2 2
33 3 1
33 4 4
33 5 1
33 6 1
33 7 4
33 8 6
33 9 2
33 10 4
33 11 5
33 12 2
33 13 9
33 14 10
33 15 1
33 16 7
33 17 2
33 18 7
33 19 6
33 20 3
33 21 5
33 22 8
33 23 6
33 24 4
33 25 1
33 26 8
33 27 6
33 28 3
33 29 5
33 30 1
33 31 8
33 32 2
34 0 8
34 1 8
34 2 8
34 3 9
34 4 4
34 5 1
34 6 7
34 7 2
34 8 9
34 9 5
34 10 9
34 11 7
34 12 1
34 13 7
34 14 2
34 15 1
34 16 5
34 17 8
34 18 8
34 19 9
34 20 5
34 21 3
34 22 4
34 23 7
34 24 4
34 25 6
34 26 6
34 27 2
34 28 4
34 29 8
34 30 9
34 31 6
34 32 3
34 33 3
35 0 10
35 1 2
35 2 7
35 3 10
35 4 1
35 5 7
35 6 1
35 7 3
35 8 7
35 9 3
35 10 1
35 11 9
35 12 5
35 13 5
35 14 8
35 15 8
35 16 2
35 17 5
35 18 7
35 19 10
35 20 7
35 21 5
35 22 3
35 23 10
35 24 3
35 25 7
35 26 6
35 27 8
35 28 5
35 29 6
35 30 4
35 31 5
35 32 5
35 33 5
35 34 7
36 0 8
36 1 9
36 2 10
36 3 4
36 4 7
36 5 7
36 6 4
36 7 1
36 8 6
36 9 9
36 10 2
36 11 3
36 12 5
36 13 10
36 14 4
36 15 5
36 16 5
36 17 3
36 18 1
36 19 7
36 20 5
36 21 9
36 22 4
36 23 3
36 24 2
36 25 10
36 26 10
36 27 10
36 28 5
36 29 3
36 30 8
36 31 5
36 32 5
36 33 6
36 34 8
36 35 3
37 0 7
37 1 7
37 2 5
37 3 2
37 4 2
37 5 2
37 6 3
37 7 8
37 8 3
37 9 5
37 10 10
37 11 5
37 12 4
37 13 10
37 14 4
37 15 8
37 16 7
37 17 6
37 18 1
37 19 4
37 20 8
37 21 3
37 22 6
37 23 2
37 24 4
37 25 3
37 26 9
37 27 3
37 28 10
37 29 5
37 30 3
37 31 5
37 32 9
37 33 9
37 34 8
37 35 3
37 36 9
38 0 10
38 1 4
38 2 5
38 3 1
38 4 9
38 5 10
38 6 7
38 7 8
38 8 6
38 9 10
38 10 4
38 11 6
38 12 5
38 13 8
38 14 9
38 15 5
38 16 5
38 17 1
38 18 8
38 19 9
38 20 6
38 21 1
38 22 10
38 23 3
38 24 5
38 25 10
38 26 4
38 27 5
38 28 9
38 29 7
38 30 5
38 31 6
38 32 1
38 33 3
38 34 3
38 35 7
38 36 1
38 37 4
39 0 10
39 1 1
39 2 3
39 3 3
39 4 3
39 5 5
39 6 6
39 7 7
39 8 10
39 9 2
39 10 5
39 11 8
39 12 6
39 13 1
39 14 7
39 15 7
39 16 2
39 17 9
39 18 3
39 19 3
39 20 5
39 21 6
39 22 1
39 23 7
39 24 1
39 25 3
39 26 10
39 27 5
39 28 3
39 29 8
39 30 10
39 31 3
39 32 8
39 33 7
39 34 8
39 35 5
39 36 9
39 37 5
39 38 2
40 0 9
40 1 2
40 2 3
40 3 8
40 4 10
40 5 1
40 6 4
40 7 7
40 8 6
40 9 4
40 10 5
40 11 6
40 12 2
40 13 10
40 14 8
40 15 5
40 16 7
40 17 8
40 18 1
40 19 1
40 20 2
40 21 2
40 22 3
40 23 5
40 24 10
40 25 5
40 26 3
40 27 3
40 28 2
40 29 10
40 30 3
40 31 1
40 32 8
40 33 3
40 34 6
40 35 9
40 36 9
40 37 3
40 38 4
40 39 1
41 0 2
41 1 1
41 2 8
41 3 6
41 4 8
41 5 5
41 6 4
41 7 3
41 8 2
41 9 8
41 10 3
41 11 7
41 12 2
41 13 3
41 14 1
41 15 8
41 16 3
41 17 7
41 18 10
41 19 7
41 20 10
41 21 4
41 22 4
41 23 4
41 24 1
41 25 1
41 26 3
41 27 2
41 28 9
41 29 10
41 30 4
41 31 4
41 32 8
41 33 9
41 34 8
41 35 4
41 36 10
41 37 8
41 38 5
41 39 6
41 40 4
42 0 2
42 1 7
42 2 2
42 3 7
42 4 1
42 5 7
42 6 4
42 7 6
42 8 3
42 9 8
42 10 1
42 11 1
42 12 5
42 13 6
42 14 1
42 15 1
42 16 9
42 17 7
42 18 6
42 19 6
42 20 7
42 21 4
42 22 1
42 23 6
42 24 8
42 25 10
42 26 9
42 27 4
42 28 2
42 29 7
42 30 8
42 31 2
42 32 7
42 33 7
42 34 4
42 35 8
42 36 5
42 37 1
42 38 5
42 39 10
42 40 3
42 41 9
43 0 4
43 1 2
43 2 10
43 3 9
43 4 9
43 5 6
43 6 10
43 7 8
43 8 9
43 9 6
43 10 7
43 11 4
43 12 7
43 13 10
43 14 3
43 15 4
43 16 6
43 17 6
43 18 7
43 19 1
43 20 9
43 21 6
43 22 2
43 23 5
43 24 6
43 25 10
43 26 3
43 27 10
43 28 9
43 29 6
43 30 7
43 31 10
43 32 8
43 33 9
43 34 6
43 35 5
43 36 6
43 37 4
43 38 8
43 39 9
43 40 10
43 41 7
43 42 6
44 0 2
44 1 3
44 2 2
44 3 4
44 4 7
44 5 7
44 6 1
44 7 9
44 8 7
44 9 2
44 10 8
44 11 9
44 12 2
44 13 4
44 14 4
44 15 9
44 16 10
44 17 3
44 18 4
44 19 8
44 20 5
44 21 10
44 22 5
44 23 6
44 24 3
44 25 2
44 26 1
44 27 2
44 28 2
44 29 9
44 30 6
44 31 2
44 32 1
44 33 10
44 34 4
44 35 2
44 36 8
44 37 6
44 38 9
44 39 5
44 40 1
44 41 10
44 42 2
44 43 10
45 0 10
45 1 4
45 2 6
45 3 8
45 4 8
45 5 4
45 6 10
45 7 1
45 8 4
45 9 1
45 10 5
45 11 6
45 12 9
45 13 8
45 14 8
45 15 1
45 16 8
45 17 9
45 18 9
45 19 3
45 20 5
45 21 8
45 22 8
45 23 5
45 24 3
45 25 5
45 26 10
45 27 4
45 28 2
45 29 3
45 30 6
45 31 4
45 32 2
45 33 2
45 34 10
45 35 7
45 36 10
45 37 3
45 38 9
45 39 1
45 40 6
45 41 10
45 42 5
45 43 1
45 44 6
46 0 1
46 1 4
46 2 4
46 3 8
46 4 9
46 5 8
46 6 10
46 7 4
46 8 5
46 9 8
46 10 3
46 11 4
46 12 1
46 13 3
46 14 5
46 15 8
46 16 2
46 17 8
46 18 8
46 19 6
46 20 1
46 21 2
46 22 5
46 23 10
46 24 10
46 25 5
46 26 2
46 27 10
46 28 3
46 29 6
46 30 2
46 31 8
46 32 6
46 33 6
46 34 4
46 35 4
46 36 3
46 37 1
46 38 6
46 39 6
46 40 5
46 41 3
46 42 8
46 43 1
46 44 6
46 45 3
47 0 3
47 1 2
47 2 2
47 3 9
47 4 5
47 5 5
47 6 10
47 7 5
47 8 7
47 9 2
47 10 4
47 11 6
47 12 4
47 13 9
47 14 10
47 15 3
47 16 3
47 17 1
47 18 2
47 19 6
47 20 4
47 21 5
47 22 6
47 23 6
47 24 10
47 25 4
47 26 7
47 27 5
47 28 7
47 29 7
47 30 5
47 31 2
47 32 8
47 33 2
47 34 7
47 35 3
47 36 7
47 37 10
47 38 10
47 39 8
47 40 1
47 41 10
47 42 9
47 43 3
47 44 3
47 45 7
47 46 7
48 0 9
48 1 4
48 2 3
48 3 1
48 4 4
48 5 9
48 6 2
48 7 9
48 8 3
48 9 8
48 10 6
48 11 8
48 12 4
48 13 3
48 14 4
48 15 3
48 16 4
48 17 7
48 18 3
48 19 2
48 20 3
48 21 10
48 22 7
48 23 7
48 24 2
48 25 5
48 26 5
48 27 7
48 28 1
48 29 8
48 30 6
48 31 9
48 32 4
48 33 6
48 34 8
48 35 4
48 36 8
48 37 2
48 38 4
48 39 5
48 40 2
48 41 5
48 42 5
48 43 2
48 44 8
48 45 6
48 46 9
48 47 3
49 0 4
49 1 7
49 2 5
49 3 4
49 4 5
49 5 10
49 6 7
49 7 5
49 8 7
49 9 7
49 10 8
49 11 9
49 12 3
49 13 1
49 14 1
49 15 1
49 16 10
49 17 6
49 18 6
49 19 6
49 20 10
49 21 5
49 22 9
49 23 2
49 24 1
49 25 6
49 26 3
49 27 8
49 28 6
49 29 5
49 30 5
49 31 9
49 32 10
49 33 4
49 34 10
49 35 1
49 36 8
49 37 8
49 38 10
49 39 7
49 40 7
49 41 4
49 42 10
49 43 8
49 44 9
49 45 8
49 46 9
49 47 8
49 48 7
50 0 5
50 1 3
50 2 3
50 3 9
50 4 10
50 5 5
50 6 10
50 7 10
50 8 6
50 9 1
50 10 10
50 11 6
50 12 10
50 13 9
50 14 8
50 15 5
50 16 8
50 17 2
50 18 9
50 19 10
50 20 3
50 21 9
50 22 3
50 23 6
50 24 6
50 25 7
50 26 10
50 27 8
50 28 2
50 29 5
50 30 1
50 31 3
50 32 6
50 33 9
50 34 10
50 35 3
50 36 9
50 37 8
50 38 6
50 39 9
50 40 4
50 41 2
50 42 3
50 43 2
50 44 1
50 45 8
50 46 9
50 47 8
50 48 9
50 49 5
51 0 8
51 1 2
51 2 9
51 3 1
51 4 9
51 5 9
51 6 6
51 7 7
51 8 5
51 9 5
51 10 5
51 11 7
51 12 10
51 13 6
51 14 4
51 15 9
51 16 8
51 17 2
51 18 1
51 19 3
51 20 3
51 21 3
51 22 6
51 23 10
51 24 9
51 25 1
51 26 5
51 27 8
51 28 6
51 29 7
51 30 5
51 31 10
51 32 8
51 33 6
51 34 9
51 35 3
51 36 1
51 37 4
51 38 4
51 39 5
51 40 9
51 41 1
51 42 4
51 43 2
51 44 9
51 45 3
51 46 4
51 47 5
51 48 7
51 49 6
51 50 5
52 0 5
52 1 4
52 2 3
52 3 9
52 4 4
52 5 6
52 6 6
52 7 1
52 8 7
52 9 3
52 10 8
52 11 10
52 12 1
52 13 5
52 14 4
52 15 9
52 16 6
52 17 10
52 18 9
52 19 6
52 20 3
52 21 5
52 22 8
52 23 3
52 24 7
52 25 1
52 26 7
52 27 5
52 28 2
52 29 7
52 30 10
52 31 1
52 32 7
52 33 3
52 34 6
52 35 4
52 36 10
52 37 1
52 38 8
52 39 8
52 40 3
52 41 8
52 42 9
52 43 6
52 44 2
52 45 1
52 46 10
52 47 5
52 48 3
52 49 6
52 50 2
52 51 8
53 0 4
53 1 4
53 2 8
53 3 4
53 4 10
53 5 5
53 6 3
53 7 7
53 8 9
53 9 8
53 10 3
53 11 2
53 12 9
53 13 5
53 14 7
53 15 6
53 16 9
53 17 9
53 18 8
53 19 9
53 20 4
53 21 4
53 22 10
53 23 4
53 24 6
53 25 7
53 26 10
53 27 6
53 28 6
53 29 2
53 30 4
53 31 4
53 32 9
53 33 1
53 34 5
53 35 7
53 36 1
53 37 6
53 38 4
53 39 8
53 40 5
53 41 8
53 42 3
53 43 7
53 44 2
53 45 10
53 46 2
53 47 4
53 48 3
53 49 8
53 50 6
53 51 1
53 52 8
54 0 10
54 1 6
54 2 9
54 3 2
54 4 1
54 5 8
54 6 9
54 7 2
54 8 6
54 9 7
54 10 1
54 11 2
54 12 10
54 13 1
54 14 1
54 15 6
54 16 7
54 17 7
54 18 2
54 19 5
54 20 6
54 21 3
54 22 8
54 23 4
54 24 1
54 25 9
54 26 10
54 27 3
54 28 8
54 29 8
54 30 10
54 31 5
54 32 4
54 33 8
54 34 5
54 35 8
54 36 2
54 37 1
54 38 7
54 39 8
54 40 3
54 41 9
54 42 9
54 43 10
54 44 9
54 45 7
54 46 2
54 47 3
54 48 7
54 49 1
54 50 3
54 51 7
54 52 10
54 53 8
55 0 8
55 1 1
55 2 9
55 3 8
55 4 6
55 5 2
55 6 5
55 7 9
55 8 6
55 9 10
55 10 3
55 11 2
55 12 3
55 13 10
55 14 3
55 15 7
55 16 9
55 17 2
55 18 1
55 19 5
55 20 3
55 21 9
55 22 2
55 23 9
55 24 4
55 25 3
55 26 9
55 27 5
55 28 3
55 29 9
55 30 4
55 31 3
55 32 6
55 33 8
55 34 5
55 35 4
55 36 5
55 37 7
55 38 8
55 39 4
55 40 4
55 41 3
55 42 4
55 43 5
55 44 10
55 45 3
55 46 1
55 47 2
55 48 7
55 49 6
55 50 5
55 51 7
55 52 4
55 53 6
55 54 1
56 0 4
56 1 2
56 2 1
56 3 5
56 4 10
56 5 9
56 6 3
56 7 3
56 8 9
56 9 5
56 10 8
56 11 8
56 12 8
56 13 4
56 14 2
56 15 7
56 16 2
56 17 3
56 18 1
56 19 10
56 20 4
56 21 9
56 22 5
56 23 5
56 24 4
56 25 2
56 26 1
56 27 2
56 28 7
56 29 3
56 30 1
56 31 4
56 32 7
56 33 3
56 34 5
56 35 3
56 36 9
56 37 6
56 38 7
56 39 4
56 40 7
56 41 8
56 42 1
56 43 8
56 44 10
56 45 9
56 46 3
56 47 9
56 48 3
56 49 3
56 50 2
56 51 5
56 52 8
56 53 5
56 54 6
56 55 6
57 0 3
57 1 1
57 2 10
57 3 9
57 4 9
57 5 6
57 6 2
57 7 10
57 8 8
57 9 5
57 10 3
57 11 3
57 12 4
57 13 1
57 14 3
57 15 5
57 16 7
57 17 1
57 18 6
57 19 9
57 20 9
57 21 6
57 22 9
57 23 2
57 24 5
57 25 1
57 26 1
57 27 2
57 28 10
57 29 10
57 30 3
57 31 10
57 32 5
57 33 3
57 34 6
57 35 10
57 36 8
57 37 5
57 38 10
57 39 10
57 40 6
57 41 6
57 42 10
57 43 6
57 44 9
57 45 10
57 46 5
57 47 9
57 48 7
57 49 9
57 50 10
57 51 10
57 52 3
57 53 4
57 54 7
57 55 7
57 56 10
58 0 4
58 1 6
58 2 8
58 3 5
58 4 1
58 5 8
58 6 5
58 7 9
58 8 4
58 9 6
58 10 10
58 11 5
58 12 2
58 13 6
58 14 7
58 15 2
58 16 6
58 17 3
58 18 8
58 19 2
58 20 5
58 21 3
58 22 7
58 23 2
58 24 1
58 25 4
58 26 5
58 27 6
58 28 6
58 29 4
58 30 9
58 31 2
58 32 4
58 33 1
58 34 4
58 35 10
58 36 7
58 37 1
58 38 9
58 39 6
58 40 9
58 41 4
58 42 6
58 43 4
58 44 4
58 45 9
58 46 9
58 47 4
58 48 7
58 49 6
58 50 6
58 51 5
58 52 10
58 53 2
58 54 4
58 55 10
58 56 6
58 57 2
59 0 7
59 1 3
59 2 8
59 3 2
59 4 6
59 5 9
59 6 5
59 7 10
59 8 4
59 9 5
59 10 5
59 11 1
59 12 5
59 13 10
59 14 10
59 15 8
59 16 9
59 17 1
59 18 3
59 19 2
59 20 2
59 21 8
59 22 5
59 23 3
59 24 7
59 25 6
59 26 6
59 27 6
59 28 7
59 29 10
59 30 1
59 31 4
59 32 7
59 33 7
59 34 4
59 35 7
59 36 7
59 37 8
59 38 7
59 39 10
59 40 3
59 41 4
59 42 6
59 43 1
59 44 1
59 45 2
59 46 3
59 47 6
59 48 4
59 49 5
59 50 9
59 51 9
59 52 6
59 53 2
59 54 4
59 55 8
59 56 4
59 57 5
59 58 3
60 0 7
60 1 2
60 2 5
60 3 8
60 4 2
60 5 7
60 6 5
60 7 5
60 8 10
60 9 5
60 10 3
60 11 7
60 12 9
60 13 3
60 14 9
60 15 2
60 16 3
60 17 9
60 18 10
60 19 3
60 20 5
60 21 4
60 22 2
60 23 1
60 24 8
60 25 4
60 26 3
60 27 6
60 28 3
60 29 2
60 30 5
60 31 8
60 32 9
60 33 8
60 34 4
60 35 10
60 36 3
60 37 3
60 38 8
60 39 3
60 40 1
60 41 9
60 42 6
60 43 2
60 44 1
60 45 5
60 46 9
60 47 2
60 48 7
60 49 2
60 50 9
60 51 1
60 52 3
60 53 9
60 54 4
60 55 9
60 56 2
60 57 8
60 58 1
60 59 2
61 0 7
61 1 1
61 2 6
61 3 10
61 4 7
61 5 7
61 6 2
61 7 5
61 8 7
61 9 3
61 10 2
61 11 10
61 12 8
61 13 2
61 14 2
61 15 6
61 16 7
61 17 4
61 18 1
61 19 10
61 20 3
61 21 1
61 22 8
61 23 4
61 24 2
61 25 8
61 26 1
61 27 3
61 28 6
61 29 3
61 30 2
61 31 2
61 32 1
61 33 3
61 34 7
61 35 1
61 36 4
61 37 7
61 38 5
61 39 8
61 40 9
61 41 2
61 42 8
61 43 2
61 44 2
61 45 8
61 46 8
61 47 9
61 48 3
61 49 7
61 50 5
61 51 2
61 52 7
61 53 9
61 54 4
61 55 4
61 56 8
61 57 4
61 58 5
61 59 9
61 60 9
62 0 7
62 1 6
62 2 1
62 3 5
62 4 5
62 5 6
62 6 5
62 7 4
62 8 3
62 9 6
62 10 1
62 11 6
62 12 10
62 13 8
62 14 8
62 15 2
62 16 9
62 17 6
62 18 10
62 19 8
62 20 6
62 21 4
62 22 7
62 23 5
62 24 9
62 25 9
62 26 5
62 27 2
62 28 10
62 29 8
62 30 6
62 31 3
62 32 5
62 33 2
62 34 8
62 35 1
62 36 7
62 37 10
62 38 5
62 39 2
62 40 8
62 41 2
62 42 6
62 43 9
62 44 8
62 45 4
62 46 5
62 47 6
62 48 9
62 49 2
62 50 6
62 51 10
62 52 1
62 53 4
62 54 3
62 55 10
62 56 2
62 57 10
62 58 8
62 59 4
62 60 6
62 61 8
63 0 1
63 1 10
63 2 8
63 3 8
63 4 6
63 5 8
63 6 10
63 7 10
63 8 9
63 9 8
63 10 6
63 11 1
63 12 7
63 13 4
63 14 6
63 15 8
63 16 5
63 17 3
63 18 5
63 19 3
63 20 10
63 21 9
63 22 9
63 23 6
63 24 4
63 25 3
63 26 2
63 27 2
63 28 8
63 29 2
63 30 5
63 31 4
63 32 10
63 33 1
63 34 6
63 35 1
63 36 7
63 37 8
63 38 9
63 39 2
63 40 2
63 41 7
63 42 10
63 43 9
63 44 9
63 45 7
63 46 7
63 47 5
63 48 1
63 49 2
63 50 8
63 51 10
63 52 1
63 53 9
63 54 7
63 55 9
63 56 5
63 57 3
63 58 2
63 59 4
63 60 3
63 61 7
63 62 1
64 0 4
64 1 7
64 2 5
64 3 1
64 4 3
64 5 10
64 6 2
64 7 6
64 8 5
64 9 2
64 10 1
64 11 9
64 12 5
64 13 3
64 14 1
64 15 5
64 16 7
64 17 5
64 18 10
64 19 7
64 20 10
64 21 9
64 22 3
64 23 2
64 24 3
64 25 10
64 26 9
64 27 3
64 28 10
64 29 4
64 30 9
64 31 4
64 32 3
64 33 8
64 34 4
64 35 3
64 36 8
64 37 6
64 38 9
64 39 9
64 40 8
64 41 7
64 42 10
64 43 6
64 44 9
64 45 3
64 46 9
64 47 1
64 48 9
64 49 3
64 50 3
64 51 5
64 52 7
64 53 6
64 54 6
64 55 5
64 56 5
64 57 8
64 58 10
64 59 8
64 60 10
64 61 2
64 62 4
64 63 7
65 0 7
65 1 3
65 2 5
65 3 9
65 4 7
65 5 7
65 6 10
65 7 4
65 8 5
65 9 10
65 10 5
65 11 10
65 12 9
65 13 3
65 14 8
65 15 1
65 16 9
65 17 3
65 18 8
65 19 7
65 20 2
65 21 6
65 22 5
65 23 2
65 24 6
65 25 10
65 26 3
65 27 9
65 28 1
65 29 2
65 30 2
65 31 4
65 32 1
65 33 6
65 34 6
65 35 9
65 36 4
65 37 9
65 38 6
65 39 8
65 40 4
65 41 9
65 42 7
65 43 6
65 44 4
65 45 5
65 46 8
65 47 1
65 48 8
65 49 10
65 50 10
65 51 7
65 52 9
65 53 6
65 54 8
65 55 3
65 56 10
65 57 4
65 58 6
65 59 4
65 60 3
65 61 3
65 62 2
65 63 3
65 64 5
66 0 6
66 1 6
66 2 1
66 3 7
66 4 3
66 5 2
66 6 9
66 7 3
66 8 5
66 9 2
66 10 2
66 11 5
66 12 1
66 13 2
66 14 4
66 15 2
66 16 5
66 17 2
66 18 4
66 19 2
66 20 1
66 21 2
66 22 8
66 23 6
66 24 4
66 25 4
66 26 6
66 27 10
66 28 2
66 29 10
66 30 7
66 31 1
66 32 1
66 33 8
66 34 9
66 35 10
66 36 5
66 37 10
66 38 9
66 39 4
66 40 1
66 41 10
66 42 4
66 43 9
66 44 4
66 45 4
66 46 6
66 47 9
66 48 7
66 49 9
66 50 7
66 51 10
66 52 1
66 53 10
66 54 3
66 55 10
66 56 6
66 57 10
66 58 5
66 59 7
66 60 10
66 61 2
66 62 8
66 63 8
66 64 8
66 65 9
67 0 8
67 1 1
67 2 2
67 3 7
67 4 4
67 5 2
67 6 8
67 7 7
67 8 2
67 9 7
67 10 4
67 11 3
67 12 6
67 13 1
67 14 5
67 15 10
67 16 4
67 17 4
67 18 6
67 19 9
67 20 8
67 21 6
67 22 1
67 23 9
67 24 7
67 25 5
67 26 2
67 27 6
67 28 3
67 29 2
67 30 4
67 31 2
67 32 4
67 33 8
67 34 9
67 35 9
67 36 7
67 37 2
67 38 9
67 39 7
67 40 9
67 41 10
67 42 3
67 43 9
67 44 6
67 45 3
67 46 1
67 47 7
67 48 7
67 49 5
67 50 9
67 51 1
67 52 1
67 53 7
67 54 7
67 55 4
67 56 1
67 57 7
67 58 10
67 59 4
67 60 2
67 61 9
67 62 9
67 63 9
67 64 6
67 65 8
67 66 1
68 0 10
68 1 9
68 2 5
68 3 8
68 4 4
68 5 5
68 6 4
68 7 10
68 8 4
68 9 3
68 10 3
68 11 9
68 12 10
68 13 8
68 14 8
68 15 10
68 16 10
68 17 8
68 18 10
68 19 3
68 20 2
68 21 6
68 22 8
68 23 1
68 24 1
68 25 5
68 26 3
68 27 7
68 28 1
68 29 7
68 30 1
68 31 10
68 32 10
68 33 1
68 34 1
68 35 5
68 36 2
68 37 7
68 38 9
68 39 3
68 40 4
68 41 5
68 42 2
68 43 7
68 44 3
68 45 10
68 46 2
68 47 7
68 48 6
68 49 7
68 50 2
68 51 4
68 52 4
68 53 3
68 54 7
68 55 3
68 56 10
68 57 7
68 58 4
68 59 8
68 60 8
68 61 5
68 62 8
68 63 7
68 64 5
68 65 2
68 66 2
68 67 5
69 0 9
69 1 9
69 2 4
69 3 10
69 4 5
69 5 5
69 6 5
69 7 1
69 8 5
69 9 7
69 10 4
69 11 1
69 12 2
69 13 6
69 14 6
69 15 1
69 16 8
69 17 9
69 18 8
69 19 5
69 20 1
69 21 5
69 22 2
69 23 6
69 24 4
69 25 7
69 26 5
69 27 4
69 28 4
69 29 9
69 30 4
69 31 1
69 32 5
69 33 8
69 34 5
69 35 1
69 36 5
69 37 9
69 38 6
69 39 3
69 40 9
69 41 4
69 42 5
69 43 10
69 44 4
69 45 8
69 46 9
69 47 3
69 48 7
69 49 6
69 50 1
69 51 7
69 52 4
69 53 4
69 54 3
69 55 8
69 56 8
69 57 9
69 58 3
69 59 7
69 60 4
69 61 8
69 62 4
69 63 4
69 64 7
69 65 10
69 66 9
69 67 6
69 68 6
70 0 4
70 1 6
70 2 5
70 3 6
70 4 4
70 5 9
70 6 2
70 7 1
70 8 8
70 9 10
70 10 9
70 11 6
70 12 6
70 13 6
70 14 2
70 15 10
70 16 8
70 17 1
70 18 8
70 19 3
70 20 5
70 21 4
70 22 4
70 23 5
70 24 3
70 25 10
70 26 7
70 27 9
70 28 7
70 29 5
70 30 2
70 31 2
70 32 1
70 33 7
70 34 2
70 35 7
70 36 4
70 37 9
70 38 2
70 39 9
70 40 3
70 41 3
70 42 10
70 43 7
70 44 6
70 45 3
70 46 10
70 47 1
70 48 8
70 49 7
70 50 4
70 51 9
70 52 5
70 53 4
70 54 9
70 55 3
70 56 7
70 57 1
70 58 3
70 59 5
70 60 4
70 61 4
70 62 2
70 63 4
70 64 6
70 65 2
70 66 8
70 67 2
70 68 1
70 69 1
71 0 9
71 1 2
71 2 2
71 3 4
71 4 10
71 5 9
71 6 8
71 7 1
71 8 7
71 9 6
71 10 7
71 11 3
71 12 4
71 13 7
71 14 10
71 15 5
71 16 5
71 17 9
71 18 8
71 19 2
71 20 1
71 21 7
71 22 5
71 23 2
71 24 6
71 25 9
71 26 2
71 27 7
71 28 3
71 29 3
71 30 10
71 31 4
71 32 4
71 33 2
71 34 8
71 35 1
71 36 7
71 37 8
71 38 5
71 39 6
71 40 7
71 41 8
71 42 1
71 43 2
71 44 4
71 45 5
71 46 6
71 47 6
71 48 2
71 49 1
71 50 9
71 51 2
71 52 5
71 53 1
71 54 10
71 55 4
71 56 2
71 57 7
71 58 1
71 59 3
71 60 4
71 61 6
71 62 8
71 63 4
71 64 2
71 65 2
71 66 2
71 67 7
71 68 3
71 69 1
71 70 2
72 0 5
72 1 5
72 2 6
72 3 10
72 4 8
72 5 6
72 6 5
72 7 8
72 8 5
72 9 10
72 10 5
72 11 1
72 12 7
72 13 3
72 14 5
72 15 9
72 16 9
72 17 2
72 18 3
72 19 3
72 20 8
72 21 1
72 22 3
72 23 2
72 24 3
72 25 4
72 26 6
72 27 1
72 28 10
72 29 1
72 30 9
72 31 3
72 32 4
72 33 7
72 34 2
72 35 9
72 36 5
72 37 7
72 38 2
72 39 8
72 40 2
72 41 4
72 42 1
72 43 10
72 44 4
72 45 4
72 46 3
72 47 4
72 48 9
72 49 8
72 50 9
72 51 2
72 52 7
72 53 6
72 54 1
72 55 8
72 56 3
72 57 1
72 58 6
72 59 4
72 60 4
72 61 2
72 62 2
72 63 5
72 64 5
72 65 2
72 66 3
72 67 1
72 68 5
72 69 8
72 70 7
72 71 7
73 0 4
73 1 8
73 2 5
73 3 8
73 4 7
73 5 7
73 6 5
73 7 9
73 8 3
73 9 4
73 10 8
73 11 2
73 12 4
73 13 2
73 14 7
73 15 2
73 16 3
73 17 1
73 18 3
73 19 8
73 20 3
73 21 6
73 22 10
73 23 8
73 24 10
73 25 4
73 26 2
73 27 7
73 28 6
73 29 8
73 30 5
73 31 10
73 32 9
73 33 5
73 34 4
73 35 3
73 36 5
73 37 1
73 38 10
73 39 4
73 40 9
73 41 5
73 42 8
73 43 4
73 44 5
73 45 2
73 46 6
73 47 3
73 48 9
73 49 3
73 50 1
73 51 4
73 52 10
73 53 8
73 54 4
73 55 8
73 56 3
73 57 2
73 58 3
73 59 10
73 60 10
73 61 10
73 62 2
73 63 3
73 64 2
73 65 2
73 66 3
73 67 1
73 68 8
73 69 9
73 70 5
73 71 3
73 72 2
74 0 6
74 1 6
74 2 5
74 3 7
74 4 1
74 5 6
74 6 3
74 7 5
74 8 9
74 9 7
74 10 6
74 11 9
74 12 4
74 13 8
74 14 6
74 15 7
74 16 4
74 17 9
74 18 3
74 19 1
74 20 9
74 21 9
74 22 7
74 23 1
74 24 6
74 25 9
74 26 8
74 27 2
74 28 9
74 29 1
74 30 9
74 31 7
74 32 7
74 33 5
74 34 9
74 35 4
74 36 4
74 37 7
74 38 10
74 39 4
74 40 5
74 41 3
74 42 6
74 43 10
74 44 7
74 45 2
74 46 4
74 47 5
74 48 8
74 49 4
74 50 4
74 51 6
74 52 10
74 53 6
74 54 10
74 55 8
74 56 1
74 57 5
74 58 2
74 59 8
74 60 4
74 61 10
74 62 2
74 63 7
74 64 4
74 65 9
74 66 8
74 67 2
74 68 7
74 69 3
74 70 1
74 71 2
74 72 3
74 73 9
